,lambda_x,lambda_y,sigma_xx [MPa],sigma_yy [MPa]
0,1.0,1.0,0.0012570710245128848,0.001970865467009426
1,1.0010282776349615,1.001759899434318,0.002097272737554916,0.0011159279085386578
2,1.002185089974293,1.0040226272784412,0.00041993927926850744,0.0002581035031564116
3,1.0032133676092545,1.0062853551225646,0.0021018507597093117,0.0011209691188169102
4,1.004370179948586,1.0084223758642363,-0.00042085488369938653,0.0002592345439239682
5,1.0053984575835475,1.0106851037083597,0.00042128575637274143,0.001125870295476322
6,1.0065552699228792,1.0128221244500315,0.0021088524406513284,0.0002603655846915248
7,1.0075835475578407,1.0150848522941545,0.00042220136080362063,0.0002609472628005538
8,1.0084832904884318,1.0167190446260215,0.001267735123178418,0.0011325919091806581
9,1.0096401028277635,1.0191074795725958,0.0004230631061503304,0.0011352525479386244
10,1.010668380462725,1.021370207416719,0.0004234939788236853,0.00026256303532563467
11,1.0118251928020565,1.0236329352608424,0.002119893552906047,0.0011402937582168768
12,1.0129820051413883,1.0258956631049654,0.0004244634423387338,0.00026372639154369286
13,1.0140102827763495,1.0281583909490886,0.002124471575060443,0.000264308069652722
14,1.0151670951156813,1.030421118793212,0.0029776533273872903,0.001147855573634255
15,1.0160668380462725,1.0325581395348837,0.002128780301793992,0.0020350331798888025
16,1.017095115681234,1.0344437460716531,0.00127856079909646,0.00026592384217780286
17,1.0182519280205655,1.0367064739157763,0.0021333583239483878,0.001154857254576272
18,1.019408740359897,1.0389692017598995,0.0038444075689248155,0.0020476685210349347
19,1.0205655526992288,1.0412319296040224,0.001282923384914178,0.0020521280532041575
20,1.0217223650385603,1.0434946574481458,0.0021406293003112514,0.0020565875853733808
21,1.022879177377892,1.0458830923947204,0.003000274142738422,0.0020612948693297835
22,1.0239074550128535,1.0481458202388436,0.002145207322465647,0.0038620625767155337
23,1.0248071979434448,1.0499057196731616,0.003005929346576205,0.0029688850684845185
24,1.0259640102827763,1.0521684475172848,0.004728935308238231,0.002975283527683839
25,1.027120822622108,1.0545568824638591,0.004734267357570998,0.005692980599419291
26,1.0282776349614395,1.0569453174104335,0.00560134475361354,0.006611568823561409
27,1.029305912596401,1.059208045254557,0.004744339006310668,0.0029951898451928347
28,1.0304627249357325,1.0615964802011313,0.005613247611214968,0.006640663500829699
29,1.0316195372750643,1.0638592080452547,0.004755003104976202,0.0057431988094988045
30,1.0325192802056555,1.0661219358893776,0.0030285501619273366,0.004841856264107713
31,1.033676092544987,1.068007542426147,0.005630751813570011,0.006680766974902205
32,1.0348329048843188,1.0703959773727216,0.003902575379827726,0.0076129276882550044
33,1.0359897172236505,1.0727844123192962,0.005643354839265643,0.007629914843402022
34,1.037146529562982,1.0751728472658706,0.005649656352113457,0.009581660335531324
35,1.0381748071979433,1.0775612822124452,0.00565525769686707,0.011449665723594104
36,1.039331619537275,1.0799497171590193,0.006532568318901791,0.014251264476648583
37,1.0404884318766068,1.082338152105594,0.006539839295264655,0.014282782812704495
38,1.041388174807198,1.0840980515399121,0.008203686438875056,0.015234968333551464
39,1.0425449871465295,1.0864864864864865,0.01258130971289338,0.019085666643507262
40,1.0437017994858613,1.088874921433061,0.010845926933689234,0.020060677644225203
41,1.0448586118251928,1.0912633563796355,0.012609230262126778,0.021039781935340014
42,1.0460154241645243,1.0937774984286612,0.013499800990683992,0.02296276667652288
43,1.047172236503856,1.0961659333752358,0.015269890563726877,0.030621259149985168
44,1.0483290488431878,1.0985543683218102,0.017043857990829955,0.030687979783454167
45,1.0492287917737788,1.1008170961659334,0.018729162593573424,0.03735420480563065
46,1.0502570694087403,1.102828409805154,0.017955369131312217,0.03940697916784484
47,1.0515424164524423,1.1052168447517285,0.020532946409672664,0.04612173122485791
48,1.0525706940874036,1.107605279698303,0.020553025076250998,0.05296004679277233
49,1.0538560411311053,1.1101194217473287,0.023227667196101462,0.055934037702436094
50,1.0548843187660668,1.112507856693903,0.02678650312894349,0.06186954575787002
51,1.0560411311053983,1.115021998742929,0.027700890344520397,0.06879313102784138
52,1.05719794344473,1.1174104336895034,0.028617216487127405,0.07564303707066904
53,1.0580976863753213,1.1192960402262728,0.03387331373939851,0.08066220821167912
54,1.0592544987146528,1.1218101822752984,0.036573463521511584,0.08757232871060813
55,1.0604113110539846,1.124198617221873,0.03927943008471495,0.09363505192285008
56,1.0615681233933163,1.126712759270899,0.04021192472438961,0.10263030532176225
57,1.0627249357326478,1.1292269013199245,0.04283852454116099,0.11166476813394968
58,1.0640102827763496,1.1317410433689503,0.04824048296517956,0.12364780036807299
59,1.0651670951156813,1.134129478315525,0.05007825186338966,0.12973974751938522
60,1.0660668380462726,1.1365179132620993,0.05012055278809628,0.13984916224887528
61,1.0672236503856043,1.1385292269013199,0.054557421054700905,0.14897464691330894
62,1.0683804627249356,1.1410433689503456,0.059093325405276134,0.16015672993493285
63,1.0695372750642673,1.1435575109993714,0.06363892439100186,0.16844690329116707
64,1.070822622107969,1.1461973601508486,0.06811266458662883,0.1837648038425225
65,1.0719794344473008,1.1487115021998742,0.0699829859153109,0.19804691880258327
66,1.0731362467866323,1.1512256442489,0.07716328512406707,0.20647088889571102
67,1.074293059125964,1.153739786297926,0.08084769889755841,0.2228388584674829
68,1.0751928020565553,1.1556253928346951,0.08451966045078976,0.23419486324370645
69,1.0763496143958868,1.1582652419861723,0.08641466001183823,0.24673927948394384
70,1.0776349614395886,1.1607793840351979,0.09274930696823443,0.2613991620603685
71,1.0787917737789203,1.1632935260842237,0.0964651852186975,0.278014194023042
72,1.079948586118252,1.1659333752357008,0.10281345852338859,0.29682845396960306
73,1.0811053984575834,1.1684475172847266,0.10745367714818299,0.31468984977085657
74,1.0823907455012853,1.1710873664362038,0.11384038429533737,0.3295502066303765
75,1.0832904884318766,1.1734758013827782,0.11847425832001665,0.3475177694583446
76,1.0,1.0,0.00041259231753104755,0.001098993997802012
77,1.0025361399949277,1.001113999257334,-0.00041363870940913796,0.00025389652529985644
78,1.0053258939893481,1.0024755539051862,0.002073948702375187,0.001101714616685047
79,1.0081156479837687,1.0038371085530386,-0.0004159407715409369,0.00025458714393939607
80,1.0109054019781893,1.0053224408961505,0.0004170918026068364,0.0002549638450155086
81,1.0136951559726097,1.006683995544003,0.002091214168363679,0.0011063396687862066
82,1.0164849099670301,1.0080455501918553,-0.0004193938647386352,0.00025565446365504824
83,1.0192746639614507,1.0094071048397077,0.0012616346874136039,0.001109332349557545
84,1.021303575957393,1.0105211040970417,0.002106910046535035,0.001110556628054911
85,1.0242201369515598,1.0118826587448941,0.002958097519767677,0.00025662760810167236
86,1.0271366979457266,1.0132442133927466,0.0012713661318798446,0.0011135493088262494
87,1.029926451940147,1.0147295457358583,0.0038244576752326283,0.0011151816801560704
88,1.0327162059345676,1.0160911003837108,0.0012782723182752412,0.0011166780205417398
89,1.0356327669287344,1.0174526550315632,0.0038456471107639594,0.001118174360927409
90,1.038422520923155,1.018937987374675,0.0038560063903570548,0.0002584169382132069
91,1.0408318539183363,1.0201757643272682,0.0047238314944513336,0.0019836032276208614
92,1.0434948009130105,1.0212897635846019,0.003013765567682087,0.0037125251360332983
93,1.0464113619071773,1.0227750959277138,0.005612636755701326,0.0045825581269903475
94,1.0493279229013441,1.0241366505755662,0.003030612476919342,0.0037228739517076127
95,1.052244483895511,1.025621982918678,0.005643923872856229,0.006329394264355691
96,1.0551610448896778,1.0269835375665306,0.004788864749674652,0.005469605449885149
97,1.0579507988840984,1.0284688699096423,0.003055516603617894,0.0037386221494728734
98,1.0608673598782652,1.0298304245574947,0.005690174393867825,0.006355365710769897
99,1.0631498858737003,1.0309444238148286,0.003947827277659488,0.0054907007101474515
100,1.0660664468678671,1.032305978462681,0.006597762389329539,0.006370643032190016
101,1.068983007862034,1.0337913108057928,0.006615812649226598,0.007253755921623198
102,1.0718995688562007,1.035152865453645,0.006633862909123657,0.008225916759881869
103,1.0749429368501142,1.036638197796757,0.007451021718480801,0.011743132851869594
104,1.077859497844281,1.0379997524446096,0.011028970395072892,0.012636060897119265
105,1.0807760588384479,1.039485084787721,0.010166973693739575,0.012654142548772663
106,1.0833121988333758,1.0408466394355738,0.01376656175437058,0.014430539256694064
107,1.0859751458280498,1.0419606386929077,0.013800402067708021,0.01620768936676769
108,1.089018513821963,1.043445971036019,0.016535000746234367,0.01808322124121937
109,1.0920618818158763,1.0448075256838718,0.02009570488467553,0.015368713286752362
110,1.0951052498097895,1.0462928580269835,0.019248043752072053,0.021670618836470618
111,1.0980218108039566,1.0477781903700951,0.020205377217418188,0.022587153482490005
112,1.1010651787978696,1.0491397450179478,0.02116996217847948,0.028913649241343393
113,1.104108546791783,1.0506250773610595,0.024872850045315573,0.030730938943860562
114,1.1063910727872177,1.0517390766183932,0.027663200483106564,0.03343088112338455
115,1.1094344407811312,1.0531006312662459,0.03130969829163237,0.03623399754208827
116,1.1124778087750444,1.0545859636093575,0.03690358370487831,0.04074273272207933
117,1.1155211767689577,1.0560712959524692,0.03884556146358874,0.047138865860419626
118,1.1186913517626174,1.057556628295581,0.04172533655128135,0.04988727691173677
119,1.1217347197565306,1.059041960638693,0.04915139135955092,0.05085263620278786
120,1.1247780877504439,1.0604035152865452,0.0539254915198257,0.05817921053520735
121,1.1274410347451178,1.061888847629657,0.05498350881168169,0.0655320702316045
122,1.1302307887395384,1.063002846886991,0.05875689209934473,0.06649945952289908
123,1.133400963733198,1.0644881792301026,0.06640381930524163,0.07289165822777775
124,1.1365711387268578,1.0659735115732145,0.07306093304189645,0.08029270427016097
125,1.1397413137205172,1.0674588439163262,0.08069464431837305,0.08500686710365875
126,1.142911488714177,1.068944176259438,0.08657777337456074,0.09235446344890909
127,1.1459548567080904,1.0704295086025497,0.09059081179406285,0.10071756218400861
128,1.1491250317017498,1.0719148409456616,0.10022900181612819,0.10819733875129933
129,1.1515343646969312,1.072905062507736,0.1079459535665069,0.11473707871098877
130,1.1547045396905908,1.0743903948508478,0.11777157330177582,0.11943726174899523
131,1.1578747146842505,1.0759995048892188,0.12468758531690777,0.13253286656721547
132,1.1611716966776566,1.0773610595370715,0.134528618404541,0.13907602822834628
133,1.1643418716713163,1.0789701695754426,0.1444077924761306,0.1513239928418006
134,1.167512046664976,1.0804555019185542,0.15722900195215916,0.15883947229997175
135,1.1706822216586354,1.0819408342616659,0.1682822486388037,0.16921046101818257
136,1.173471975653056,1.0833023889095186,0.18020640728558296,0.1824277926035811
137,1.176388536647223,1.0845401658621117,0.18929386033437182,0.18813732524719362
138,1.179685518640629,1.0860254982052235,0.20043507718620746,0.19950405001267654
139,1.1828556936342884,1.087510830548335,0.21746936381707263,0.2119124578927984
140,1.1861526756276948,1.0889961628914469,0.23265956264942284,0.22426195391018383
141,1.1894496576211007,1.0904814952345587,0.24694932034283854,0.23756621973281408
142,1.1927466396145068,1.0919668275776706,0.2622005238216814,0.2519213350629354
143,1.1959168146081665,1.093452159920782,0.27760151829787283,0.2643734193400487
144,1.1984529546030942,1.094566159178116,0.2929254983318369,0.27676450943458825
145,1.2017499365965,1.096175269216487,0.31049049399543194,0.29125698462654653
146,1.2051737255896524,1.0976606015595989,0.33007151010703106,0.3065914808988854
147,1.2084707075830585,1.0991459339027108,0.3478273571852711,0.3229885253399123
148,1.2117676895764646,1.1007550439410818,0.36667509326046094,0.33751276898928934
149,1.215191478569617,1.1022403762841935,0.38556019598961727,0.35585899036514795
150,1.218488460563023,1.1037257086273053,0.4086262411790342,0.37145422656566934
151,1.2214050215571899,1.105211040970417,0.42462180598427535,0.38895879309830467
152,1.0,1.0,0.000406603236561763,0.00024953212726138487
153,1.0014971927635683,1.0013417906806537,0.002036059999925934,0.002748536418586947
154,1.0029943855271366,1.0029275433032445,0.00040782076340861045,0.00025026264336949327
155,1.0046163443543354,1.0043913149548669,0.0012254407713519582,0.0002506279014235475
156,1.006113537117904,1.0059770675774578,0.0020454451027037165,0.00025102359764877293
157,1.0077354959451028,1.0075628202000486,0.0012292455427483566,0.0002514192938739984
158,1.009232688708671,1.0091485728226395,0.002872500943710132,0.0010911982904299698
159,1.0108546475358702,1.010612344474262,-0.000411016771381585,0.0002521802481532781
160,1.0123518402994385,1.012198097096853,0.001234876604415026,0.0002525759443785035
161,1.0138490330630068,1.0137838497194438,0.0037101086840558915,0.0002529716406037289
162,1.0150966936993138,1.0151256404000977,0.0037146744097315697,0.00025330646048661197
163,1.016593886462882,1.0164674310807513,0.003720153280542383,0.0019445831494994618
164,1.018215845290081,1.0180531837033422,0.00041400985821341826,0.0019476168205595232
165,1.0197130380536494,1.019638936325933,0.0053900420812789465,0.00025443267281994583
166,1.0213349968808483,1.021224688948524,0.003737503038109959,0.0011042562658624088
167,1.0229569557080473,1.0228104415711148,0.005407188917705382,0.0002552240652703967
168,1.0244541484716156,1.0243961941937056,0.004582010097254522,0.001107685633147696
169,1.0260761072988147,1.0259819468162965,0.005423676260423107,0.001962785175859831
170,1.0276980661260136,1.0274457184679189,0.005432249678636324,0.0019655854876075803
171,1.029195258889582,1.0290314710905097,0.004603215356503782,0.0019686191586676415
172,1.0304429195258888,1.0304952427421323,0.003770832835542408,0.0036856972707766016
173,1.0319401122894574,1.031837033422786,0.005454672464732433,0.006265261255135235
174,1.0335620711166562,1.0334227860453769,0.006303745249552672,0.003696168001659489
175,1.0351840299438553,1.0350085386679677,0.004630000947134426,0.005423625530137822
176,1.0368059887710543,1.0365942912905586,0.005480392719372085,0.005431935150867556
177,1.0384279475982532,1.0381800439131497,0.0029555971510074703,0.003713182939344183
178,1.0399251403618217,1.0397657965357405,0.005496880062089811,0.006313404295870996
179,1.0415470991890206,1.0413515491583314,0.004658460637179485,0.004590695122095367
180,1.0431690580162196,1.0429373017809223,0.0038174032374343235,0.0063326615121653
181,1.0447910168434187,1.0445230544035131,0.005522600316729463,0.006342290120312451
182,1.0460386774797255,1.0459868260551355,0.005529195253816553,0.0072212024589375125
183,1.0475358702432938,1.0473286167357891,0.005537109178321061,0.007230465809030609
184,1.0491578290704928,1.04891436935838,0.007166728278598145,0.007241413404595179
185,1.0507797878976919,1.0506221029519394,0.006408756940093265,0.009088350900977475
186,1.0524017467248907,1.0522078555745302,0.0064186493457239,0.013478062778829498
187,1.0540237055520898,1.053793608197121,0.006428541751354536,0.012621857315898145
188,1.0557704304429194,1.0555013417906807,0.008070457872784778,0.013520250084072765
189,1.0573923892701185,1.0570870944132715,0.012382248032438568,0.017145517439017502
190,1.0590143480973173,1.0586728470358624,0.009817649482239097,0.017171237693657155
191,1.0606363069245164,1.0603805806294218,0.012420234870060207,0.01534674327548508
192,1.0618839675608236,1.0618443522810441,0.013298376108348933,0.019872321003388226
193,1.0633811603243917,1.0631861429616978,0.01331712602179038,0.02166609316079151
194,1.0651278852152215,1.0647718955842889,0.01680367648465097,0.021698408352518257
195,1.0667498440424206,1.0664796291778482,0.017696752718927688,0.02803140468456644
196,1.0683718028696194,1.068065381800439,0.017723660062243015,0.029849862198789566
197,1.0699937616968185,1.0697731153939984,0.014270063992703768,0.03523644447461205
198,1.0716157205240175,1.0713588680165893,0.017777474748873676,0.03626891738679574
199,1.0732376793512164,1.0730666016101489,0.023826452505723517,0.0416820214557654
200,1.0748596381784155,1.0746523542327397,0.023862460862219034,0.04353135342161316
201,1.076606363069245,1.076360087826299,0.023901239092291124,0.04906178649439068
202,1.0778540237055518,1.0778238594779215,0.02743500930469527,0.05361103497340794
203,1.0794759825327511,1.0791656501585751,0.029231967324014486,0.05556278123918969
204,1.0810979413599502,1.0808733837521347,0.028396733761020077,0.06014591754877755
205,1.0828446662507798,1.082581117345694,0.03451859064571079,0.06483330459462672
206,1.0844666250779786,1.084166869968285,0.03545219023187342,0.07214252409853424
207,1.0860885839051777,1.0858746035618445,0.0399212848601399,0.07866889413203297
208,1.0878353087960073,1.0875823371554036,0.04166629506732695,0.0806018600462021
209,1.0894572676232064,1.089290070748963,0.04438628048135532,0.08897341230821224
210,1.0912039925140362,1.0908758233715539,0.04800694152639616,0.09554520623915543
211,1.092825951341235,1.0925835569651134,0.049855685020934605,0.10205625572649801
212,1.0941983780411726,1.0941693095877043,0.054278361438165015,0.10957619868942364
213,1.0958203368683717,1.095511100268358,0.056141076053271045,0.1170914338818748
214,1.0974422956955707,1.0972188338619175,0.0606864081542643,0.12001187494517958
215,1.0991890205864006,1.098926567455477,0.06346460149762904,0.12760253592579296
216,1.1008109794135994,1.1006343010490363,0.0679446640135742,0.13887812307684658
217,1.102557704304429,1.1023420346425958,0.07163890426439284,0.14743738754046945
218,1.104179663131628,1.1040497682361552,0.0770420550513895,0.15510418453323901
219,1.105926388022458,1.1057575018297146,0.08166066197644888,0.16371373285563665
220,1.107548346849657,1.107465235423274,0.08448242248881664,0.1751126148920477
221,1.1092950717404866,1.1091729690168333,0.08641983237597675,0.18562329080156942
222,1.1106674984404243,1.1107587216394241,0.09456524931829911,0.19337226071044414
223,1.1122894572676232,1.1121005123200782,0.10013047322072528,0.20202349918128934
224,1.1140361821584528,1.1138082459136374,0.10472682984265848,0.2135436063074181
225,1.1157829070492824,1.1155159795071967,0.10852048116052221,0.2241702313569879
226,1.1174048658764815,1.1172237131007563,0.11676549179891668,0.23482839035189113
227,1.1191515907673113,1.1189314466943157,0.1187682220014102,0.24924087454750485
228,1.120898315658141,1.120639180287875,0.12524309064928726,0.25996778322502667
229,1.1226450405489705,1.1224688948524029,0.1327417979147925,0.27364993394155895
230,1.1243917654398004,1.1241766284459624,0.13925743341992486,0.28912074320273784
231,1.12613849033063,1.1258843620395218,0.14863159874819976,0.2999548855572957
232,1.1275109170305677,1.1274701146621127,0.15513934062094173,0.31556971809839957
233,1.1291328758577668,1.1288119053427663,0.15811716778296125,0.32730615945309904
234,1.1308796007485964,1.1306416199072944,0.16654655257019663,0.34109687298014196
235,1.132626325639426,1.1323493535008538,0.17325120911830205,0.3578120352630271
236,1.1343730505302558,1.1340570870944133,0.18265094251036076,0.3716518962904544
237,1.1361197754210854,1.1358868016589412,0.1893071009057334,0.39133650509222995
238,1.1377417342482843,1.1375945352525005,0.19873702896359394,0.4072536394033489
239,1.1394884591391141,1.13930226884606,0.20923517449265022,0.4279550048749267
240,1.1412351840299437,1.141131983410588,0.21967176389354123,0.4449679133482084
241,1.1429819089207733,1.1428397170041473,0.22735087819957808,0.466736786066988
242,1.1444791016843419,1.144547450597707,0.2359318958095313,0.4857127130754419
243,1.1461010605115407,1.146011222249329,0.245586427132464,0.5035872145679522
244,1.1478477854023705,1.1477189558428886,0.25520174394487116,0.5264853434371828
245,1.1495945102932001,1.1495486704074163,0.2667149010219159,0.5486471425076112
246,1.1514660012476607,1.1512564040009758,0.2773556392368522,0.569762994702084
247,1.0,1.0,0.0004054163626043948,0.0002498126405196103
248,1.0019985011241568,1.0,0.0004062265876608112,0.0010825214422516447
249,1.0041219085685735,1.0,0.0012212623553497612,0.0010825214422516447
250,1.0061204096927303,1.0,0.0004078976768396702,0.0002498126405196103
251,1.0082438171371473,1.0,0.0012262756228863382,0.0010825214422516447
252,1.010242318261304,1.0,0.0004095687660185292,0.0002498126405196103
253,1.0123657257057208,1.0,0.0012312888904229152,0.0002498126405196103
254,1.0144891331501373,1.0,0.002056452471317071,0.0019152302439836787
255,1.0164876342742943,1.0,0.0020605035965991537,0.0002498126405196103
256,1.0186110417187109,1.0,0.0037166542509804584,0.0002498126405196103
257,1.0202348238820886,1.0,0.002895339239104282,0.0010825214422516447
258,1.0222333250062454,1.0,0.002072150581785141,0.0002498126405196103
259,1.024356732450662,1.0,0.0020764549023973527,0.0010825214422516447
260,1.0264801398950787,1.0,0.0037453666014172176,0.0019152302439836787
261,1.0286035473394952,1.0,0.002919088961070489,0.0002498126405196103
262,1.0307269547839122,1.0,0.0029251150099275877,0.0010825214422516447
263,1.0328503622283287,1.0,0.0029311410587846845,0.0010825214422516447
264,1.0349737696727455,1.0,0.003776357709825148,0.0010825214422516447
265,1.0370971771171622,1.0,0.0021022808260706283,0.0010825214422516447
266,1.0392205845615787,1.0,0.002949219205355977,0.0002498126405196103
267,1.0408443667249563,1.0,0.0037977780347541582,0.0010825214422516447
268,1.042842867849113,1.0,0.0038050700602619064,0.0002498126405196103
269,1.0450911816137898,1.0,0.0029658794580785415,0.0019152302439836787
270,1.0472145890582063,1.0,0.003821021366060106,0.0019152302439836787
271,1.049337996502623,1.0,0.002977931555792736,0.0002498126405196103
272,1.0514614039470398,1.0,0.0038365169202640714,0.0027479390457157134
273,1.053709717711716,1.0,0.004699102770951463,0.0019152302439836787
274,1.0558331251561328,1.0,0.005564676326534391,0.0010825214422516447
275,1.0579565326005496,1.0,0.004718041781645199,0.0027479390457157134
276,1.0600799400449663,1.0,0.004727511286992067,0.0027479390457157134
277,1.0618286285286034,1.0,0.005596275103734632,0.0019152302439836787
278,1.0639520359730203,1.0,0.004744779208506944,0.0010825214422516447
279,1.0660754434174369,1.0,0.005618657570918138,0.0027479390457157134
280,1.0683237571821136,1.0,0.004764275248926965,0.004413356649179781
281,1.0705720709467899,1.0,0.004774301784000118,0.0019152302439836787
282,1.0726954783912066,1.0,0.0056535478874100735,0.004413356649179781
283,1.074943792155883,1.0,0.00479379782442014,0.0035806478474477476
284,1.0770671996002996,1.0,0.005676588662451916,0.0035806478474477476
285,1.0793155133649763,1.0,0.005688438203902009,0.005246065450911816
286,1.0815638271296528,1.0,0.004823320399913315,0.0035806478474477476
287,1.0833125156132901,1.0,0.005709504055368837,0.005246065450911816
288,1.0854359230577066,1.0,0.0057206952889605886,0.004413356649179781
289,1.0876842368223831,1.0,0.0066144748043200155,0.0035806478474477476
290,1.0899325505870598,1.0,0.005744394371860771,0.00607877425264385
291,1.0921808643517361,1.0,0.006641819899974071,0.0035806478474477476
292,1.0944291781164128,1.0,0.006655492447801101,0.005246065450911816
293,1.0965525855608294,1.0,0.0066684054096377374,0.005246065450911816
294,1.0988008993255058,1.0,0.006682077957464765,0.0035806478474477476
295,1.1010492130901823,1.0,0.006695750505291793,0.00607877425264385
296,1.1032975268548588,1.0,0.006709423053118821,0.004413356649179781
297,1.105171121658756,1.0,0.007527314864131641,0.004413356649179781
298,1.1072945291031726,1.0,0.0102352693033132,0.00607877425264385
299,1.109542842867849,1.0,0.010256051576010282,0.006911483054375885
300,1.1119160629527856,1.0,0.011179566350940195,0.006911483054375885
301,1.1141643767174618,1.0,0.012105572567918586,0.006911483054375885
302,1.1164126904821385,1.0,0.010319552964806925,0.006911483054375885
303,1.1187859105670748,1.0,0.013062934494580297,0.006911483054375885
304,1.121034224331751,1.0,0.013089185786408188,0.006911483054375885
305,1.1232825380964278,1.0,0.014026231319780254,0.008660171538013158
306,1.125655758181364,1.0,0.01588130235332501,0.012823715546673328
307,1.1275293529852612,1.0,0.017736211341858488,0.010325589141477225
308,1.1296527604296778,1.0,0.017769612869809256,0.011991006744941295
309,1.132025980514614,1.0,0.01872482770007146,0.011991006744941295
310,1.1343992005995505,1.0,0.019591910299821966,0.011991006744941295
311,1.1366475143642267,1.0,0.016036379429123126,0.013656424348405362
312,1.139020734449163,1.0,0.02244239345424038,0.013656424348405362
313,1.1413939545340994,1.0,0.021563673997117103,0.013656424348405362
314,1.143642268298776,1.0,0.021606150045699737,0.018735948038970773
315,1.1460154883837124,1.0,0.026297120182647425,0.01532184195186943
316,1.1482638021483886,1.0,0.029141860866978488,0.016237821633774668
317,1.1502623032725454,1.0,0.030125251273577573,0.01532184195186943
318,1.1523857107169624,1.0,0.03289060003019304,0.018735948038970773
319,1.1547589308018986,1.0,0.03483096750655204,0.017070530435506704
320,1.1572570572070948,1.0,0.03772134411718578,0.02040136564243484
321,1.159630277292031,1.0,0.03967923271038978,0.02040136564243484
322,1.1620034973769673,1.0,0.04352919936659036,0.02040136564243484
323,1.1643767174619037,1.0,0.04635603407717464,0.022899492047630945
324,1.16674993754684,1.0,0.05023467257255916,0.026313598134732285
325,1.169123157631776,1.0,0.052232778712001035,0.027146306936464318
326,1.1714963777167124,1.0,0.054238581989478875,0.02964443334166042
327,1.1734948788408692,1.0,0.05709048303774602,0.027146306936464318
328,1.175743192605546,1.0,0.061013187648386404,0.03214255974685652
329,1.1781164126904822,1.0,0.06686787390605187,0.031309850945124486
330,1.1806145390956782,1.0,0.0679669441950808,0.033891248230493796
331,1.1829877591806146,1.0,0.07376287900834289,0.03555666583395786
332,1.1854858855858106,1.0,0.08160849078588772,0.038887501040886
333,1.1878591056707468,1.0,0.08745447725200993,0.04055291864435007
334,1.190357232075943,1.0,0.09053394013518486,0.04313431592971938
335,1.1927304521608793,1.0,0.09168154290509314,0.04563244233491548
336,1.1952285785660755,1.0,0.10049882720935865,0.04729785993837955
337,1.1972270796902325,1.0,0.10833579996223949,0.04729785993837955
338,1.1994753934549087,1.0,0.11340211698438529,0.04729785993837955
339,1.2019735198601047,1.0,0.12046049384148946,0.05237738362894496
340,1.2044716462653011,1.0,0.12744956607283048,0.05487551003414106
341,1.206969772670497,1.0,0.13162850435756254,0.0557082188358731
342,1.209467899075693,1.0,0.14062896029145738,0.059955033724706466
343,1.2118411191606295,1.0,0.14768484570651313,0.0607877425264385
344,1.2143392455658255,1.0,0.15882017376937296,0.06495128653509867
345,1.2168373719710217,1.0,0.16398148967938364,0.06836539262220002
346,1.219335498376218,1.0,0.17222755519106234,0.07336164543259222
347,1.2214589058206344,1.0,0.18233242889935847,0.07502706303605629
348,1.0,1.0,0.0004054163626043948,0.0010825214422516447
349,1.0,1.001945998540501,0.002027081813021974,0.0002502987755534602
350,1.0,1.0040136219897837,0.002027081813021974,0.00025081529402692573
351,1.0,1.006081245439066,0.002027081813021974,0.0019268772291696657
352,1.0,1.0081488688883484,0.0036487472634395527,0.0002518483309738567
353,1.0,1.010338117246412,0.0036487472634395527,0.0010937126758433972
354,1.0,1.0122841157869134,0.0012162490878131842,0.00025288136792078774
355,1.0,1.0144733641449768,0.0004054163626043948,0.00025342826983386883
356,1.0,1.016419362685478,0.0028379145382307638,0.0011002957544267813
357,1.0,1.0186086110435417,0.005270412713857132,0.00025446130678079986
358,1.0,1.020189734857699,0.004459579988648343,0.0002548562914958029
359,1.0,1.0222573583069812,0.002027081813021974,0.0011066155098668296
360,1.0,1.0243249817562639,0.0036487472634395527,0.0002558893284427339
361,1.0,1.0265142301143275,0.0036487472634395527,0.0019660110993945817
362,1.0,1.02858185356361,0.0028379145382307638,0.0011134619115935492
363,1.0,1.0306494770128922,0.0036487472634395527,0.0011157001583118995
364,1.0,1.0328387253709561,0.0036487472634395527,0.001978123963988008
365,1.0,1.0349063488202386,0.005270412713857132,0.0011203083133202684
366,1.0,1.0370955971783022,0.004459579988648343,0.002849875485626112
367,1.0,1.0391632206275847,0.0036487472634395527,0.001990236828581434
368,1.0,1.0408659693505231,0.004459579988648343,0.0045937127467380896
369,1.0,1.0429335927998056,0.0036487472634395527,0.00460283790643598
370,1.0,1.045001216249088,0.005270412713857132,0.0037417813555425754
371,1.0,1.0471904646071515,0.005270412713857132,0.006365634433868103
372,1.0,1.0493797129652154,0.0028379145382307638,0.003757459210384234
373,1.0,1.0514473364144976,0.005270412713857132,0.006391510996607404
374,1.0,1.0536365847725615,0.004459579988648343,0.005527446485192053
375,1.0,1.055704208221844,0.0028379145382307638,0.004659199186922951
376,1.0,1.0578934565799076,0.005270412713857132,0.006430695505898347
377,1.0,1.0600827049379713,0.0036487472634395527,0.00732674365141574
378,1.0,1.06178545366091,0.0036487472634395527,0.006454354077545708
379,1.0,1.0638530771101922,0.005270412713857132,0.008327270317958036
380,1.0,1.066042325468256,0.0028379145382307638,0.010119812232773851
381,1.0,1.0682315738263197,0.005270412713857132,0.013698697840723893
382,1.0,1.0704208221843834,0.005270412713857132,0.013726772138928723
383,1.0,1.0726100705424473,0.0060812454390659215,0.01464801828370067
384,1.0,1.0749209438092924,0.0060812454390659215,0.020139662949212326
385,1.0,1.0771101921673558,0.0060812454390659215,0.01748992318033428
386,1.0,1.0792994405254197,0.0060812454390659215,0.017525471804684556
387,1.0,1.0814886888834834,0.01005432579258899,0.0220638461800694
388,1.0,1.0833130625152032,0.0092434930673802,0.02570940318234932
389,1.0,1.0853806859644854,0.01086515851779778,0.029464077244102112
390,1.0,1.0876915592313305,0.01086515851779778,0.03043253925403673
391,1.0,1.0898808075893944,0.012486823968215358,0.03412400563357584
392,1.0,1.0920700559474583,0.012486823968215358,0.037920993698899993
393,1.0,1.094380929214303,0.01329765669342415,0.04438034078835586
394,1.0,1.0965701775723669,0.014919322143841727,0.05095229903284043
395,1.0,1.098881050839212,0.018081569772156008,0.053804817877713094
396,1.0,1.1010702991972758,0.017270737046947218,0.05950492332242751
397,1.0,1.103381172464121,0.01573015486905052,0.06707205062026882
398,1.0,1.1052055460958405,0.01654098759425931,0.07270483649060822
399,1.0,1.107273169545123,0.018892402497364798,0.07662120109018214
400,1.0,1.1095840428119679,0.018892402497364798,0.0879610299572815
401,1.0,1.111894916078813,0.020514067947782374,0.08999599120897711
402,1.0,1.114205789345658,0.021324900672991167,0.09862609326958402
403,1.0,1.1163950377037217,0.025379064299035112,0.1072795298118157
404,1.0,1.1187059109705668,0.026189897024243902,0.116910310456163
405,1.0,1.121016784237412,0.026189897024243902,0.12181921087766029
406,1.0,1.123327657504257,0.03097381010297576,0.1362884833861023
407,1.0,1.1255169058623207,0.03097381010297576,0.14405191808730008
408,1.0,1.1274629044028217,0.03178464282818455,0.15669377862006073
409,1.0,1.1296521527608856,0.034217141003810916,0.1617013948368692
410,1.0,1.1319630260277307,0.035838806454228496,0.17635963208409391
411,1.0,1.1342738992945756,0.03819022135733399,0.1909819155944402
412,1.0,1.1365847725614207,0.041433552258169144,0.2009300917768254
413,1.0,1.139017270737047,0.04467688315900431,0.2147335415895307
414,1.0,1.141328144003892,0.047920214059839455,0.22961518826824906
415,1.0,1.1436390172707371,0.0454877158842131,0.2463647379198432
416,1.0,1.1459498905375822,0.04629854860942189,0.2604127946770807
417,1.0,1.1483823887132085,0.05108246168815374,0.27444895125380203
418,1.0,1.1503283872537096,0.052704127138571324,0.29138970389089724
419,1.0,1.1525176356117734,0.057569123489824056,0.30259706096127253
420,1.0,1.1548285088786185,0.057569123489824056,0.32262883231640976
421,1.0,1.1572610070542448,0.0631638692937647,0.33882335754873216
422,1.0,1.1596935052298711,0.0639747020189735,0.3620360522197341
423,1.0,1.1620043784967162,0.06721803291980866,0.3783360079875227
424,1.0,1.1644368766723425,0.0728127787237493,0.40065394074528426
425,1.0,1.1667477499391876,0.0736236114489581,0.4210745897440619
426,1.0,1.169180248114814,0.07767777507500204,0.4475577983665418
427,1.0,1.1716127462904404,0.07848860780021083,0.47209876586721966
428,1.0,1.1735587448309415,0.08570501905456905,0.4965319329241414
429,1.0,1.1757479931890051,0.08894834995540421,0.518214183358265
430,1.0,1.1781804913646314,0.09292143030892729,0.5480319947341853
431,1.0,1.180612989540258,0.09535392848455364,0.576002290425212
