,lambda_x,lambda_y,sigma_xx [MPa],sigma_yy [MPa]
0,1.0,1.0,-0.0004604687571948244,0.000277623542476402
1,1.0011104941699056,1.0019339687802182,0.0023049005253255647,0.00027816045774020496
2,1.0022209883398112,1.004006078187595,0.00046149145293540144,0.0002787357240942796
3,1.0033314825097168,1.0063544688492887,-0.00046200280080569,0.0002793876926288975
4,1.0044419766796224,1.0085647188838238,0.0023125707433798923,0.0012133390103173896
5,1.005552470849528,1.010774968918359,-0.00046302549654626704,0.00028061492751758996
6,1.0066629650194336,1.012985218952894,0.0004635368444165556,0.0002812285449619362
7,1.0077734591893392,1.0151954689874292,0.0023202409614342203,0.0012213160370938905
8,1.0086063298167685,1.0168531565133305,-0.0004644317031895605,0.0002823023754895421
9,1.009716823986674,1.0192015471750242,0.001394829153179547,0.0012261354907713601
10,1.0108273181565797,1.0214117972095593,0.002327271994650688,0.0012287944996968603
11,1.0119378123264853,1.0236220472440944,-0.0004659657468004261,0.0012314535086223608
12,1.0130483064963909,1.0258322972786298,0.002332385473353573,0.0040820644811198495
13,1.0141588006662965,1.0281806879403232,0.0004669884425410032,0.005994390462728149
14,1.015269294836202,1.0303909379748586,0.003272498532879042,0.006007276429059421
15,1.0161021654636313,1.0324630473822352,0.003275183109198057,0.005063903526860861
16,1.017212659633537,1.0343970161624534,0.0032787625442900767,0.006987875456214983
17,1.0183231538034425,1.036745406824147,0.004220153973491266,0.007003740023890684
18,1.0194336479733481,1.0389556568586822,0.005163590794173611,0.007980133214813126
19,1.0205441421432537,1.0413040475203759,0.006109073006337109,0.012912709824887134
20,1.0216546363131593,1.0436524381820693,0.003293080284658156,0.011976022796092596
21,1.0229039422543031,1.0458626882166044,0.006123198991253831,0.014904946694924773
22,1.0240144364242088,1.0482110788782981,0.005186793203787953,0.014938414413035159
23,1.024847307051638,1.050006907031358,0.0061348321553028945,0.015935696164458887
24,1.0259578012215436,1.0523552976930517,0.007086322704942282,0.018990309369807987
25,1.0270682953914492,1.0545655477275868,0.00709399292299661,0.019030194503690492
26,1.0281787895613548,1.0569139383892803,0.007953862717977052,0.01907257245844065
27,1.0292892837312604,1.059262329050974,0.012702008934934741,0.02303596588256329
28,1.0305385896724044,1.0616107197126676,0.00987024113145739,0.027999172230067586
29,1.03164908384231,1.0638209697472027,0.013681214539143774,0.03209380308509977
30,1.032481954469739,1.0660312197817379,0.014643111017943529,0.034133518604893706
31,1.0335924486396446,1.067965188561956,0.014658860532348415,0.03814867321718629
32,1.0347029428095502,1.0704517198508081,0.01658040355931867,0.04031777253185999
33,1.035952248750694,1.0728001105125018,0.018508517406422127,0.04735569616087946
34,1.0370627429205996,1.0751485011741955,0.020342990674778995,0.054523540500042496
35,1.0381732370905052,1.077496891835889,0.020364774094053288,0.05663689011315797
36,1.0394225430316493,1.0799834231247412,0.021346523653917007,0.06386353945740418
37,1.0405330372015549,1.0823318137864346,0.022327595677852585,0.07101362724177143
38,1.0413659078289839,1.0841276419394945,0.024263533147371456,0.07624810363446381
39,1.0424764019988895,1.086476032601188,0.028129629855474937,0.0845573147712011
40,1.043586896168795,1.08896256389004,0.030081751485088445,0.09492899640796018
41,1.0448362021099389,1.0913109545517337,0.03290822683810832,0.09816345065928976
42,1.0459466962798445,1.0936593452134273,0.037759460785716174,0.10758466444215004
43,1.04705719044975,1.0961458765022793,0.0377995504587468,0.11807456970651982
44,1.0481676846196557,1.098494267163973,0.03977023401605178,0.1275782255497674
45,1.049139367018323,1.1007045171985081,0.0446380612020505,0.13394655192634075
46,1.0502498611882287,1.102776626605885,0.04555580279225084,0.14450598771737302
47,1.0513603553581343,1.1052631578947367,0.04947692053119738,0.15618516029106636
48,1.0526096612992781,1.1076115485564306,0.05438265137808124,0.1700469701142993
49,1.053720155469184,1.1100980798452824,0.05541043502996769,0.17761980196673086
50,1.0549694614103278,1.1125846111341346,0.05926521816644103,0.19160836214331156
51,1.0560799555802334,1.1150711424229867,0.06224535355448261,0.20761828045114283
52,1.057329261521377,1.1174195330846803,0.06913512692178271,0.2205678201063875
53,1.0581621321488064,1.1193535018648983,0.07016408667377083,0.22934005673967103
54,1.059272626318712,1.1218400331537506,0.07599331177439579,0.2497822616849828
55,1.0605219322598558,1.1243265644426026,0.07901296156911392,0.26396599055995584
56,1.0616324264297614,1.1268130957314546,0.08779720209365252,0.283528114685714
57,1.062742920599667,1.1292996270203068,0.0908251996423531,0.296799087612222
58,1.0639922265408106,1.1317861583091586,0.09485145050343091,0.31756206107656576
59,1.0651027207107162,1.1342726895980109,0.10073771645898656,0.3351594204966175
60,1.0660744031093836,1.1366210802597043,0.10868392174260605,0.3549968670994357
61,1.0671848972792892,1.138693189667081,0.11066447431380759,0.37271495575166264
62,1.068434203220433,1.1411797209559333,0.11768175227256415,0.39369961130147324
63,1.0695446973903386,1.1438043928719435,0.12460045514562589,0.41598660595842485
64,1.0707940033314827,1.1462909241607957,0.12967666937246394,0.4426681497800297
65,1.0719044975013883,1.148777455449648,0.1385968517283188,0.46616593949164414
66,1.0731538034425319,1.1512639867384997,0.14666484729094417,0.4929574742401479
67,1.0742642976124375,1.153750518027352,0.15463232464596766,0.5209280749079633
68,1.075235980011105,1.1556844868075702,0.1597233168262571,0.5391269200441386
69,1.0764852859522487,1.1583091587235805,0.16674938996838257,0.5739022057936379
70,1.0775957801221543,1.1607956900124328,0.17386819604678497,0.6044602394688098
71,1.0788450860632983,1.1634203619284433,0.18489945251773252,0.6351116708324901
72,1.0,1.0,-0.0004572473708276177,0.0002719978240174079
73,1.0020399836801306,1.000960219478738,0.0022909007400094437,0.00027225900162620374
74,1.0043519651842785,1.0020576131687242,-0.0004592372954660624,0.00027255749032197046
75,1.0065279477764177,1.0031550068587105,0.0013806967733558542,0.0002728559790177372
76,1.0088399292805659,1.0042524005486968,0.0013838682157483757,0.00118366936009185
77,1.0110159118727051,1.005349794238683,-0.0004622843675686809,0.00027345295640927056
78,1.013327893376853,1.0065843621399178,0.0013900245450985636,0.0011864179434987018
79,1.0155038759689923,1.007681755829904,0.00046433647735207695,0.001187711394513691
80,1.0171358629130967,1.0085048010973938,0.00046508269909149364,0.00027431111140959987
81,1.0194478444172448,1.0096021947873801,0.0023306992327783377,0.0030207056011590325
82,1.021623827009384,1.0106995884773662,0.0023356740443744493,0.0030239889768124656
83,1.023935808513532,1.0117969821673525,0.002340959781695318,0.004861982869111899
84,1.0261117911056712,1.0128943758573388,0.0014075607559748576,0.003948905948761555
85,1.028423772609819,1.013991769547325,0.004232196595102136,0.006711219835618544
86,1.030735754113967,1.0152263374485597,0.002356506067933167,0.004878461932524019
87,1.0325037399700803,1.0161865569272976,0.004248986584239013,0.005804411177879302
88,1.0346797225622195,1.0171467764060356,0.00615035957627291,0.0067321016072932225
89,1.0369917040663674,1.0182441700960219,0.0042674555722895776,0.007662565494171978
90,1.0393036855705156,1.0193415637860082,0.006177845410341427,0.007670823681421524
91,1.0416156670746635,1.0204389574759944,0.006191588327375685,0.012397553860264135
92,1.0439276485788114,1.0215363511659807,0.006205331244409943,0.012410886355341714
93,1.0462396300829595,1.0227709190672154,0.007175854801666388,0.014280495175334439
94,1.0485516115871074,1.0238683127572017,0.007191712013628994,0.01522411743888491
95,1.0501835985312118,1.0246913580246912,0.007202905339720245,0.015236355475411342
96,1.0524955800353597,1.0257887517146775,0.011935020752115647,0.016182713885339674
97,1.0548075615395078,1.0268861454046638,0.010032006072255037,0.017131062219906446
98,1.0572555419556644,1.0279835390946501,0.013922706725342085,0.01910663452689635
99,1.0595675234598123,1.0292181069958848,0.012015214715044967,0.01819643056024276
100,1.0618795049639602,1.030315500685871,0.01398359841927849,0.02008412282038735
101,1.0641914864681083,1.0314128943758574,0.014987241784736047,0.021975794929808834
102,1.0660954712362303,1.0325102880658437,0.01793887212688307,0.024807582060605522
103,1.0682714538283695,1.0334705075445816,0.01992934399460333,0.026704664277637773
104,1.0705834353325174,1.0345679012345679,0.01899343268902683,0.030578823682167747
105,1.0730314157486742,1.0358024691358025,0.02188257939752669,0.033432674102393194
106,1.075343397252822,1.0368998628257888,0.023896519938951595,0.03722855484645836
107,1.0777913776689787,1.0379972565157751,0.02395091950375508,0.03830317633636344
108,1.0801033591731266,1.0392318244170096,0.028941041082553826,0.044944338387679736
109,1.0824153406772747,1.0403292181069959,0.030982716198627067,0.049802241911282824
110,1.0843193254453964,1.0411522633744856,0.03391286779170787,0.05078561291948623
111,1.0866313069495446,1.0423868312757203,0.0369663325272273,0.0565163720116851
112,1.0890792873657011,1.0434842249657064,0.03904152543642934,0.057616564033194186
113,1.0915272677818577,1.0445816186556927,0.04312206490002401,0.06525379529931297
114,1.0939752481980145,1.0458161865569273,0.047120470224166884,0.06921853358597915
115,1.096423228614171,1.0469135802469136,0.05223927774192804,0.07498633015051108
116,1.0987352101183192,1.0480109739369,0.05737337036831827,0.08086108516435939
117,1.1007751937984496,1.0491083676268862,0.05747989352162001,0.08769916269567879
118,1.1030871753025977,1.0500685871056241,0.0635523475482978,0.08873148584998793
119,1.1053991568067456,1.0511659807956104,0.070761720143093,0.09454251352729005
120,1.1078471372229024,1.052400548696845,0.07486959619640832,0.10047398139333405
121,1.110295117639059,1.0536351165980795,0.08011182878986901,0.10832968151069608
122,1.1127430980552155,1.0547325102880658,0.08832748140026768,0.11609277551019648
123,1.115191078471372,1.0559670781893005,0.0936209794272263,0.12111141519646995
124,1.117639058887529,1.0570644718792868,0.09893686410636743,0.127946060107788
125,1.1195430436556506,1.0580246913580247,0.10207447778003507,0.13391381922442566
126,1.1219910240718074,1.059122085048011,0.11255822161927505,0.14375137234841767
127,1.1244390044879642,1.0603566529492456,0.1209273222933558,0.15362889808358446
128,1.1270229838161296,1.061454046639232,0.1283167457568433,0.15965839461212986
129,1.1294709642322862,1.0626886145404664,0.1337599358647289,0.1685155616148761
130,1.131918944648443,1.0637860082304527,0.14129578047051894,0.17746645406809314
131,1.1345029239766082,1.0650205761316873,0.15292705166360498,0.18645947073850025
132,1.1365429076567386,1.0661179698216736,0.16037363571233174,0.1954477115897751
133,1.1388548891608867,1.0670781893004115,0.16996901500782507,0.20152535185754183
134,1.1414388684890522,1.0683127572016462,0.17453002177537222,0.2134785182349543
135,1.1438868489052088,1.0694101508916325,0.1873526608494951,0.22542985636910523
136,1.1464708282333742,1.070644718792867,0.1981554517934227,0.23452356322621756
137,1.148918808649531,1.0717421124828532,0.20908536161065996,0.24360646230513744
138,1.1515027879776962,1.0729766803840879,0.21787464730917727,0.2556582543224429
139,1.1540867673058617,1.0740740740740742,0.23092289408918384,0.2667291254262559
140,1.1559907520739834,1.075034293552812,0.2376467499462565,0.2738878793130607
141,1.1584387324901402,1.0761316872427984,0.2539348552152598,0.28402188146006496
142,1.1610227118183056,1.0773662551440328,0.2639508423941754,0.2981206592048224
143,1.163606691146471,1.0786008230452675,0.27720122820636095,0.30931723136064027
144,1.1661906704746363,1.0796982167352538,0.29264080473547344,0.3224557709711162
145,1.1687746498028015,1.0809327846364882,0.30387072056601416,0.33468293753421346
146,1.171358629130967,1.082167352537723,0.3172898271134819,0.3489976221022422
147,1.1735346117231062,1.0832647462277092,0.33494298337337125,0.35927126721074937
148,1.0,1.0,0.00045475216007276033,0.001154324276327473
149,1.0014651038891849,1.0013642564802183,0.0022770920961554908,0.00026674593939270597
150,1.003063399041023,1.0028649386084583,-0.0004561452474038303,0.0002671456948877086
151,1.0045285029302078,1.0045020463847203,0.00045681150656216814,0.001159521097762508
152,1.0061267980820459,1.0060027285129605,0.0013726150042047008,0.00026798154728635066
153,1.007725093233884,1.0075034106412004,-0.0004582651629076325,0.0002683813027813533
154,1.0091901971230688,1.0091405184174624,0.001376794266197911,0.0011648753986349682
155,1.0107884922749069,1.0106412005457026,-0.00045965825023870253,0.00026921715517999535
156,1.0123867874267447,1.0122783083219644,0.0004603850784114346,0.00026965325208363463
157,1.0138518913159298,1.0137789904502046,0.002305256687848863,0.00027005300757863734
158,1.0150506126798082,1.015143246930423,-0.00046159645869932157,0.0011718044938816817
159,1.0166489078316463,1.0165075034106412,0.0032362630081043766,0.0011733792882559347
160,1.0181140117208312,1.0180081855388812,0.0023149477301519584,0.0020790435328888533
161,1.0197123068726692,1.0196452933151432,0.0032460146194218664,0.0029877725696501266
162,1.0213106020245073,1.0211459754433834,0.004179988821382704,0.0029921698800951567
163,1.0229088971763451,1.0227830832196452,0.005116870336034468,0.005721482351521723
164,1.0245071923281832,1.0242837653478853,0.006056659163377162,0.00572987721691678
165,1.0261054874800213,1.0259208731241474,0.0032663658082583667,0.005739035251893206
166,1.0277037826318594,1.0274215552523875,0.006075556695868199,0.007572011106903584
167,1.0293020777836974,1.0290586630286493,0.006085005462113718,0.007584076454570938
168,1.0305007991475759,1.0304229195088677,0.006092092036797856,0.008600581995545512
169,1.032099094299414,1.031787175989086,0.00704023938812697,0.011360469705438346
170,1.033697389451252,1.033287858117326,0.007051141810717953,0.011376992932565123
171,1.0351624933404369,1.034924965893588,0.0070611356980930205,0.015070830616813037
172,1.0368939797549281,1.03656207366985,0.012636998025207857,0.016935484066351657
173,1.0384922749067662,1.038199181446112,0.009822937388840717,0.016962231343108203
174,1.039957378795951,1.039699863574352,0.013620178494462662,0.018925454806672185
175,1.0416888652104421,1.041336971350614,0.014590276056608283,0.018955254761754206
176,1.0432871603622802,1.042974079126876,0.01651041072333213,0.022689455637194513
177,1.044752264251465,1.044474761255116,0.02023940266353452,0.022722102335953065
178,1.0460841768779967,1.0459754433833561,0.019408928793370743,0.030277747695167296
179,1.047682472029835,1.0473396998635744,0.018485711648366345,0.031247215339563223
180,1.0492807671816728,1.0489768076398363,0.023190106996375304,0.03688464001290847
181,1.050879062333511,1.0506139154160983,0.024181209892712892,0.037968377159860775
182,1.052477357485349,1.05225102319236,0.023260754694764872,0.044567904285451584
183,1.054075652637187,1.053888130968622,0.03000688306279577,0.048473987909940175
184,1.0556739477890251,1.0555252387448841,0.03283678855332848,0.051361022094849634
185,1.057272242940863,1.057025920873124,0.037694471962966644,0.05424977643976786
186,1.058870538092701,1.058663028649386,0.038714502620578975,0.06006798750727737
187,1.0606020245071923,1.0603001364256481,0.0445655420938902,0.06675126946597269
188,1.061800745871071,1.061800818553888,0.04548505241521368,0.07071129585468088
189,1.0633990410229088,1.0631650750341064,0.04748785167278292,0.0764663213263742
190,1.064997336174747,1.0648021828103684,0.05337094426851164,0.08424247423939249
191,1.0667288225892382,1.0664392905866302,0.05539810438367031,0.08825443250104238
192,1.0683271177410762,1.0680763983628923,0.05927053586376139,0.09502864066414651
193,1.0700586041555675,1.0697135061391543,0.06131304416716757,0.10096834106072819
194,1.0716568993074054,1.071487039563438,0.06920203715400253,0.10979364621347959
195,1.0732551944592434,1.0731241473397,0.07408828491082907,0.120538274408162
196,1.0749866808737347,1.0747612551159618,0.07714092689489556,0.1254937888898499
197,1.0765849760255728,1.0763983628922238,0.08401181531877593,0.13629409212256358
198,1.0779168886521044,1.0778990450204637,0.0919587122833719,0.14423671291474327
199,1.0795151838039425,1.0792633015006823,0.09307688897190883,0.15218168378468153
200,1.0811134789557806,1.080900409276944,0.09901603213355809,0.16018671488929315
201,1.0828449653702719,1.0826739427012277,0.10705343131946206,0.16919784577820643
202,1.0844432605221097,1.0843110504774898,0.1110580365027645,0.18014082538122744
203,1.0861747469366008,1.0859481582537518,0.118150522722708,0.1930445935734338
204,1.087773042088439,1.0875852660300136,0.12614012084245202,0.19912988976681653
205,1.0895045285029301,1.0892223738062756,0.13030454342713532,0.21316339121550626
206,1.0911028236547682,1.0908594815825376,0.1393277275499131,0.2261726948583933
207,1.0928343100692595,1.0926330150068213,0.14750032888974812,0.23439898457258748
208,1.0941662226957911,1.0941336971350613,0.15355147627281543,0.24841945156937945
209,1.0957645178476292,1.0954979536152796,0.16264553825623745,0.2575811206866685
210,1.0974960042621205,1.0972714870395637,0.1668952541269909,0.2717359418711901
211,1.0990942994139585,1.0989085948158253,0.17513535357646706,0.2850214886749268
212,1.1008257858284498,1.1006821282401091,0.1863244008573665,0.3002393445172807
213,1.1025572722429409,1.1023192360163712,0.19253387564406058,0.3135081258178331
214,1.1042887586574321,1.1040927694406548,0.20378370998780623,0.33087489760808114
215,1.1058870538092702,1.1057298772169168,0.21313093833759378,0.3452092211236618
216,1.1076185402237615,1.1075034106412005,0.22343773735482517,0.3626773733302031
217,1.1093500266382526,1.1091405184174625,0.23478467594244778,0.3821226435322105
218,1.1106819392647842,1.1107776261937243,0.24112758426785263,0.39757988023325364
219,1.1122802344166225,1.1121418826739429,0.2504780227754031,0.41209093201903424
220,1.1140117208311135,1.1139154160982265,0.2639382021614416,0.4286724749928711
221,1.1157432072456048,1.1155525238744883,0.27540946470801014,0.44931151201337943
222,1.1174746936600959,1.117326057298772,0.284882361648863,0.4680824310367258
223,1.1192061800745872,1.1190995907230559,0.29845498135322324,0.4928728440762171
224,1.1209376664890784,1.120736698499318,0.31308772840272486,0.5107104188153524
225,1.1226691529035695,1.1225102319236016,0.323782072201657,0.5316524220458614
226,1.1244006393180608,1.1242837653478854,0.3374735888812734,0.5566512409500808
227,1.1259989344698988,1.1259208731241472,0.35310998872689503,0.5786565453420852
228,1.1274640383590837,1.1275579809004093,0.3648492085931441,0.6037271021869532
229,1.0,1.0,0.00045599635202918376,0.0011667564171602945
230,1.0020193861066236,1.0,0.00045691718472714253,0.00026925148088314486
231,1.004038772213247,1.0,-0.00045783801742510125,0.00026925148088314486
232,1.0060581583198707,1.0,0.0013762765503691802,0.0020642613534374438
233,1.008212170166936,1.0,0.00045974107166754945,0.00026925148088314486
234,1.0102315562735595,1.0,0.0004606619043655082,0.0011667564171602945
235,1.0123855681206246,1.0,0.002308220629549988,0.0011667564171602945
236,1.0144049542272482,1.0,-0.0004625649586079563,0.00026925148088314486
237,1.0164243403338717,1.0,0.0023174289565295754,0.0011667564171602945
238,1.018578352180937,1.0,0.0013934040385512134,0.00026925148088314486
239,1.020193861066236,1.0,-0.00046520467900877156,0.00026925148088314486
240,1.0222132471728596,1.0,0.0013983765351201908,0.0011667564171602945
241,1.0243672590199246,1.0,-0.00046710773325121964,0.00026925148088314486
242,1.0263866451265482,1.0,0.00046802856594917836,0.0011667564171602945
243,1.0285406569736135,1.0,0.0014070323624810034,0.0020642613534374438
244,1.0306946688206786,1.0,0.00046999300903815714,0.00026925148088314486
245,1.0328486806677437,1.0,0.00047097523058264645,0.0011667564171602945
246,1.0348680667743673,1.0,0.003303272442964237,0.0011667564171602945
247,1.0370220786214324,1.0,-0.00047287828482509453,0.00026925148088314486
248,1.0391760904684977,1.0,0.00236930253184792,0.0011667564171602945
249,1.0407915993537964,1.0,0.0014237915175838527,0.00026925148088314486
250,1.0428109854604202,1.0,0.002377590026129549,0.00026925148088314486
251,1.0449649973074853,1.0,0.0023825011338519954,0.0011667564171602945
252,1.0471190091545504,1.0,0.0033423771382042194,0.0020642613534374438
253,1.0492730210016157,1.0,0.0033492526890156454,0.0020642613534374438
254,1.0514270328486808,1.0,0.003356128239827071,0.0011667564171602945
255,1.0535810446957459,1.0,0.0062455784683286344,0.0038592712259917436
256,1.055735056542811,1.0,0.004332702010435612,0.0029617662897145937
257,1.0578890683898763,1.0,0.006271116228485358,0.0038592712259917436
258,1.0600430802369414,1.0,0.0053171335534000705,0.005654281098546043
259,1.0617932148626819,1.0,0.002420869162933611,0.0038592712259917436
260,1.0638126009693054,1.0,0.006306230648700853,0.006551786034823192
261,1.066101238556812,1.0,0.005347521032432709,0.004756776162268893
262,1.0682552504038774,1.0,0.004384084474981713,0.004756776162268893
263,1.070543887991384,1.0,0.006346133398945733,0.006551786034823192
264,1.072697899838449,1.0,0.007337194937335493,0.004756776162268893
265,1.074986537425956,1.0,0.007352849093200793,0.006551786034823192
266,1.0771405492730208,1.0,0.007367582416368131,0.0074492909711003415
267,1.079429186860528,1.0,0.009253656503865903,0.0074492909711003415
268,1.081583198707593,1.0,0.009272122268902302,0.0074492909711003415
269,1.0833333333333335,1.0,0.012251101991184073,0.0074492909711003415
270,1.0853527194399568,1.0,0.011284104880634298,0.009334051337282356
271,1.0876413570274637,1.0,0.014283662144273122,0.012924071082390956
272,1.0899299946149703,1.0,0.012325701717488036,0.011129061209836654
273,1.0920840064620356,1.0,0.015337978750127997,0.012924071082390956
274,1.0943726440495423,1.0,0.015370121950171409,0.013821576018668104
275,1.0966612816370491,1.0,0.016402412237891115,0.013821576018668104
276,1.0988152934841142,1.0,0.021344975605300166,0.014719080954945254
277,1.1011039310716209,1.0,0.021389433407957615,0.018398851193681568
278,1.1032579429186862,1.0,0.020525729170580213,0.017501346257404418
279,1.105142703284868,1.0,0.02348365251850198,0.017501346257404418
280,1.1072967151319333,1.0,0.02352942404247519,0.018398851193681568
281,1.1095853527194401,1.0,0.02458999003290688,0.01651409082749955
282,1.1118739903069468,1.0,0.025654730464902648,0.019296356129958715
283,1.1141626278944534,1.0,0.03180418627733369,0.021988870938790164
284,1.1164512654819603,1.0,0.03186951628781154,0.021988870938790164
285,1.118739903069467,1.0,0.03693423118204715,0.023783880811344464
286,1.1210285406569735,1.0,0.03905452827459771,0.024681385747621614
287,1.1233171782444802,1.0,0.040158717179374026,0.02925866092263508
288,1.1256058158319873,1.0,0.0453732576924522,0.030156165858912228
289,1.127490576198169,1.0,0.048431195749141606,0.030156165858912228
290,1.1296445880452342,1.0,0.052644631508537584,0.031053670795189378
291,1.131933225632741,1.0,0.053783603333758145,0.03464369054029797
292,1.1343564889606894,1.0,0.05803684362124458,0.03652845090647999
293,1.136645126548196,1.0,0.060227160832147915,0.03652845090647999
294,1.138933764135703,1.0,0.06232195699784968,0.040118470651588585
295,1.141357027463651,1.0,0.06557728475167353,0.04281098546042004
296,1.143645665051158,1.0,0.07405275168137913,0.043708490396697185
297,1.1459343026386646,1.0,0.07723168715458031,0.0491832705079878
298,1.1483575659666128,1.0,0.08263147465094915,0.05008077544426495
299,1.150242326332795,1.0,0.08591413271924846,0.05008077544426495
300,1.15239633817986,1.0,0.09437773932380432,0.0509782803805421
301,1.1548196015078083,1.0,0.09668257128902581,0.05277329025309639
302,1.1572428648357567,1.0,0.10321783144636297,0.058248070364387006
303,1.159666128163705,1.0,0.10861624383256954,0.058248070364387006
304,1.1619547657512117,1.0,0.11730815555737267,0.06462035541195477
305,1.16437802907916,1.0,0.12487994183284015,0.06551786034823191
306,1.1668012924071083,1.0,0.132482226087264,0.06910788009334051
307,1.1692245557350567,1.0,0.1402216407470679,0.07180039490217197
308,1.1716478190630049,1.0,0.14371785833467776,0.07907018488601687
309,1.1735325794291869,1.0,0.15454455491981267,0.07996768982229403
310,1.1758212170166935,1.0,0.16117275779079712,0.08364746006103034
311,1.178244480344642,1.0,0.17225042425831838,0.0827499551247532
312,1.18066774367259,1.0,0.18111109392223407,0.08723747980613894
313,1.1830910070005385,1.0,0.18903560823209697,0.08903248967869323
314,1.1855142703284869,1.0,0.2012076659444883,0.09450726978998385
315,1.187937533656435,1.0,0.21126112089649324,0.1007898043439239
316,1.1903607969843835,1.0,0.22243951418340188,0.10177705977382877
317,1.1927840603123316,1.0,0.23583728616116145,0.10805959432776881
318,1.19520732364028,1.0,0.24721661742053402,0.11353437443905944
319,1.1972267097469038,1.0,0.2606274652226046,0.11981690899299946
320,1.1995153473344105,1.0,0.2697678838601602,0.11891940405672231
321,1.2019386106623589,1.0,0.28445332372720666,0.1234966792317358
322,1.2044964997307486,1.0,0.3003277182183189,0.1307664692155807
323,1.2069197630586967,1.0,0.31403028581910275,0.1343564889606893
324,1.2094776521270867,1.0,0.330028010502895,0.13893376413570277
325,1.211900915455035,1.0,0.3438416550825914,0.1452162986896428
326,1.2143241787829833,1.0,0.3621377167916421,0.1506910788009334
327,1.2168820678513732,1.0,0.38165594449073165,0.15248608867348773
328,1.2193053311793216,1.0,0.39453673643631854,0.16155088852988692
329,1.2214593430263867,1.0,0.4128343205887633,0.16702566864117754
330,1.0,1.0,0.002263262719536484,-0.0006247211066488176
331,1.0,1.0019011406844107,0.0004526525439072968,0.0002682466240118904
332,1.0,1.0039380771319935,0.0004526525439072968,0.0002687919885226221
333,1.0,1.0061108093427484,0.0013579576317218902,0.002065198448450086
334,1.0,1.0081477457903314,0.0004526525439072968,0.00026991907517813425
335,1.0,1.0101846822379141,0.002263262719536484,0.0011720125719850857
336,1.0,1.0123574144486693,0.0013579576317218902,0.0002710461618336464
337,1.0,1.014394350896252,0.0013579576317218902,0.0011768966141589717
338,1.0,1.016431287343835,0.002263262719536484,0.0011792598603721424
339,1.0,1.0184682237914178,0.0031685678073510777,0.001181623106585313
340,1.0,1.020097772949484,0.0031685678073510777,0.0030043040167186947
341,1.0,1.0221347093970667,0.004073872895165671,0.003010303026336743
342,1.0,1.024307441607822,0.005884483070794858,0.006673310418328514
343,1.0,1.0263443780554047,0.004073872895165671,0.004854640967151847
344,1.0,1.0285171102661597,0.0049791779829802645,0.004864918058376301
345,1.0,1.0306898424769146,0.005884483070794858,0.006714891432468967
346,1.0,1.0327267789244976,0.0031685678073510777,0.007649827992033316
347,1.0,1.0348995111352526,0.0049791779829802645,0.007665922304705575
348,1.0,1.0369364475828355,0.0049791779829802645,0.007681010722835819
349,1.0,1.0391091797935905,0.0049791779829802645,0.00964456534569687
350,1.0,1.040874524714829,0.006789788158609452,0.014305638269173018
351,1.0,1.0427756653992395,0.006789788158609452,0.013401133049307498
352,1.0,1.0449483976099947,0.006789788158609452,0.015294202338959317
353,1.0,1.0471211298207497,0.006789788158609452,0.021026528711260033
354,1.0,1.0492938620315047,0.006789788158609452,0.018260803489169426
355,1.0,1.0513307984790874,0.012131088176715555,0.01726415590541295
356,1.0,1.0535035306898426,0.012131088176715555,0.02303510620428482
357,1.0,1.0556762629005976,0.009415172913271774,0.026851203474044655
358,1.0,1.0578489951113526,0.013036393264530148,0.029833135426611996
359,1.0,1.0598859315589355,0.01394169835234474,0.03178238938008053
360,1.0,1.061651276480174,0.01394169835234474,0.03657272581181144
361,1.0,1.0636882129277567,0.019282998370450843,0.0375921938705392
362,1.0,1.065996740901684,0.017562918703603117,0.04252570666515419
363,1.0,1.068169473112439,0.019282998370450843,0.04938079313451525
364,1.0,1.070342205323194,0.01846822379141771,0.05330218211248035
365,1.0,1.072514937533949,0.019282998370450843,0.058291976524602857
366,1.0,1.074823465507876,0.02109360854608003,0.06225438903298631
367,1.0,1.0769961977186313,0.021998913633894623,0.07016574960594385
368,1.0,1.0791689299293863,0.022904218721709217,0.07512287062426785
369,1.0,1.0813416621401413,0.028336049248596777,0.08502115165956846
370,1.0,1.0831070070613797,0.028336049248596777,0.08912312900585384
371,1.0,1.0851439435089627,0.02924135433641137,0.09510141477249454
372,1.0,1.08745247148289,0.0309614340032591,0.10219432864538001
373,1.0,1.089760999456817,0.03367734926670288,0.11028906500526824
374,1.0,1.0919337316675721,0.035487959442332066,0.12035146440066502
375,1.0,1.0942422596414991,0.040014484881405035,0.1284184356473513
376,1.0,1.096414991852254,0.04263986963606736,0.13855632561024467
377,1.0,1.0987235198261813,0.04807170016295492,0.14973233509813288
378,1.0,1.1008962520369363,0.04626108998732573,0.16299749059609794
379,1.0,1.1032047800108638,0.04988231033858411,0.171215806554118
380,1.0,1.1049701249321022,0.053503530689842475,0.18352069634079804
381,1.0,1.1071428571428572,0.054318305268875614,0.19376235099126665
382,1.0,1.1094513851167844,0.057034220532319393,0.20624607186062135
383,1.0,1.1117599130907114,0.05884483070794858,0.2236418424012908
384,1.0,1.1140684410646389,0.06337135614702155,0.23723045965017658
385,1.0,1.116376969038566,0.06518196632265073,0.2507738358830942
386,1.0,1.118685497012493,0.06961796125294224,0.26736633297630136
387,1.0,1.1208582292232483,0.07323918160420062,0.2830904764570989
388,1.0,1.1231667571971755,0.076860401955459,0.30081422921452244
389,1.0,1.1254752851711027,0.08129639688575051,0.31770444685374366
390,1.0,1.1273764258555132,0.08310700706137969,0.33343377735699875
391,1.0,1.1295491580662682,0.08582292232482347,0.3534314456207351
392,1.0,1.1318576860401957,0.08935361216730038,0.37253825489658565
393,1.0,1.1341662140141229,0.09297483251855874,0.39576884397993933
394,1.0,1.1366105377512223,0.1002172732210755,0.4211697414317782
395,1.0,1.1389190657251496,0.10646387832699619,0.44570817520792333
396,1.0,1.1412275936990766,0.11099040376606917,0.4712592660460176
397,1.0,1.1435361216730038,0.11452109360854609,0.4989511913305949
398,1.0,1.1459804454101032,0.11814231395980446,0.5289612551236995
399,1.0,1.1482889733840305,0.12357414448669202,0.5569790781206788
400,1.0,1.1501901140684412,0.1316313597682419,0.5878749471905367
401,1.0,1.1523628462791962,0.13525258011950028,0.6087314312473505
